pair_style eam/fs
pair_coeff * * Ag-Ni_nonint.eam.fs.txt Ag Ni
neighbor 2.0 bin 
neigh_modify delay 10 check yes 
